NAME: instance_2420
TYPE: TSP
DIMENSION: 20
EDGE_WEIGHT_TYPE: EUC_2D
NODE_COORD_SECTION
0 93.09 87.69
1 67.82 40.50
2 37.83 42.05
3 72.66 18.17
4 97.26 42.59
5 34.40 74.79
6 47.89 96.29
7 68.42 6.41
8 49.71 18.46
9 56.55 13.94
10 63.81 11.86
11 5.79 2.62
12 77.76 88.01
13 49.91 88.95
14 61.43 76.03
15 5.95 76.45
16 31.97 16.03
17 42.34 66.01
18 86.04 53.62
19 23.29 85.57
EOF
